&CONTROL
    prefix = 'MoS2'
    outdir = 'work'
    pseudo_dir = 'pp'
/
&SYSTEM
    ibrav = 4
    ntyp = 2
    nat = 3

    a = 3.185463346637291
    c = 15.0

    assume_isolated = '2D'

    ecutwfc = 100.0

    occupations = 'smearing'
    smearing = 'marzari-vanderbilt'
    degauss = 0.02

    tot_charge = -0.1
/
&ELECTRONS
    conv_thr = 1e-18
    diago_full_acc = .true.
/

ATOMIC_SPECIES
Mo 95.95 Mo.upf
S  32.06  S.upf

ATOMIC_POSITIONS crystal
S   0.3333333333  0.6666666667  0.1042047358
Mo  0.0000000000  0.0000000000  0.0000000000
S   0.3333333333  0.6666666667 -0.1042047358

K_POINTS automatic
12 12 1 0 0 0
